100
100
100
99
95
95
94
94
93
93
93
92
91
88
87
86
86
86
86
85
85
85
84
84
84
83
82
81
79
78
77
76
76
76
76
75
75
73
72
71
71
69
69
69
69
67
67
65
65
64
64
64
64
63
63
62
61
61
60
59
59
59
57
57
56
56
55
55
54
53
51
49
47
45
45
43
43
43
42
42
42
38
37
36
36
33
31
29
28
28
28
28
27
27
27
26
26
25
24
22
22
20
